[[45, 54, 52, 53, 63, 62, 61, 71, 72, 81, 80, 70, 69, 78, 79, 88, 89, 90], [99, 98, 97, 96, 87, 95, 86, 85, 94, 93, 92, 91, 82, 83, 73, 84, 75, 76, 77], [68, 67, 66, 74, 65, 64, 56, 55, 46, 47, 57, 58, 59, 49, 60, 51, 50, 40, 39, 48], [41, 32, 31, 38, 29, 37, 30, 28, 19, 21, 22, 20, 13, 11, 10, 2, 12, 3, 4, 14, 5, 6], [7, 8, 9, 18, 17, 16, 15, 23, 24, 25, 26, 27, 35, 36, 44, 34, 33, 43, 42]]